NAME 
ROWS
 N  OBJ
 L  R0      
 L  R1      
 L  R2      
 L  R3      
 L  R4      
 L  R5      
 L  R6      
 L  R7      
 L  R8      
 L  R9      
COLUMNS
    MARKER    'MARKER'                 'INTORG'
    x[0]      OBJ       4
    x[0]      R0        3
    x[0]      R1        5
    x[0]      R2        7
    x[0]      R3        3
    x[0]      R4        -6
    x[0]      R5        -6
    x[0]      R6        -7
    x[0]      R7        3
    x[0]      R8        -10
    x[0]      R9        -7
    x[1]      OBJ       -7
    x[1]      R0        -9
    x[1]      R1        6
    x[1]      R2        -1
    x[1]      R4        -5
    x[1]      R5        -3
    x[1]      R7        -5
    x[1]      R8        8
    x[1]      R9        3
    x[2]      OBJ       4
    x[2]      R0        -10
    x[2]      R1        -9
    x[2]      R2        9
    x[2]      R3        -3
    x[2]      R4        9
    x[2]      R5        4
    x[2]      R6        -2
    x[2]      R7        7
    x[2]      R8        -8
    x[2]      R9        9
    x[3]      OBJ       -7
    x[3]      R0        1
    x[3]      R1        -3
    x[3]      R2        -8
    x[3]      R3        -10
    x[3]      R4        6
    x[3]      R5        3
    x[3]      R6        1
    x[3]      R7        3
    x[3]      R8        -2
    x[4]      OBJ       -10
    x[4]      R0        5
    x[4]      R1        -9
    x[4]      R2        -5
    x[4]      R3        7
    x[4]      R4        3
    x[4]      R5        2
    x[4]      R6        -7
    x[4]      R7        -6
    x[4]      R8        2
    x[4]      R9        -2
    x[5]      OBJ       10
    x[5]      R0        5
    x[5]      R1        -6
    x[5]      R2        -9
    x[5]      R3        1
    x[5]      R4        -1
    x[5]      R5        4
    x[5]      R6        -1
    x[5]      R7        -6
    x[5]      R8        -10
    x[5]      R9        -3
    x[6]      OBJ       1
    x[6]      R0        -9
    x[6]      R1        10
    x[6]      R2        -3
    x[6]      R3        3
    x[6]      R4        -7
    x[6]      R5        6
    x[6]      R6        7
    x[6]      R7        9
    x[6]      R9        2
    x[7]      OBJ       7
    x[7]      R0        -7
    x[7]      R1        -6
    x[7]      R2        7
    x[7]      R3        7
    x[7]      R4        8
    x[7]      R5        9
    x[7]      R6        -3
    x[7]      R7        -4
    x[7]      R8        9
    x[7]      R9        -8
    x[8]      OBJ       2
    x[8]      R0        10
    x[8]      R1        10
    x[8]      R2        10
    x[8]      R3        1
    x[8]      R4        -5
    x[8]      R5        3
    x[8]      R6        5
    x[8]      R7        8
    x[8]      R8        -4
    x[8]      R9        -5
    x[9]      OBJ       10
    x[9]      R0        4
    x[9]      R1        -8
    x[9]      R2        -5
    x[9]      R3        -7
    x[9]      R4        4
    x[9]      R5        4
    x[9]      R6        3
    x[9]      R7        10
    x[9]      R8        3
    x[10]     OBJ       -7
    x[10]     R0        -7
    x[10]     R1        3
    x[10]     R2        -9
    x[10]     R4        -2
    x[10]     R5        6
    x[10]     R6        -3
    x[10]     R7        3
    x[10]     R8        -8
    x[10]     R9        1
    x[11]     OBJ       3
    x[11]     R0        -9
    x[11]     R1        10
    x[11]     R2        -3
    x[11]     R3        2
    x[11]     R4        -8
    x[11]     R5        2
    x[11]     R6        -9
    x[11]     R7        -2
    x[11]     R8        2
    x[11]     R9        2
    x[12]     OBJ       4
    x[12]     R0        6
    x[12]     R1        3
    x[12]     R2        6
    x[12]     R3        10
    x[12]     R4        -2
    x[12]     R5        3
    x[12]     R6        6
    x[12]     R7        -3
    x[12]     R8        3
    x[12]     R9        -8
    x[13]     OBJ       -1
    x[13]     R0        -8
    x[13]     R1        -9
    x[13]     R2        -7
    x[13]     R3        -1
    x[13]     R5        6
    x[13]     R6        8
    x[13]     R7        8
    x[13]     R8        -9
    x[13]     R9        3
    x[14]     OBJ       10
    x[14]     R0        4
    x[14]     R1        3
    x[14]     R2        -8
    x[14]     R3        -10
    x[14]     R4        -1
    x[14]     R5        -8
    x[14]     R6        -10
    x[14]     R7        5
    x[14]     R8        5
    x[14]     R9        5
    x[15]     OBJ       4
    x[15]     R0        -5
    x[15]     R1        -4
    x[15]     R2        5
    x[15]     R3        -2
    x[15]     R4        10
    x[15]     R5        4
    x[15]     R6        -7
    x[15]     R7        -5
    x[15]     R8        6
    x[16]     OBJ       -5
    x[16]     R0        9
    x[16]     R1        6
    x[16]     R2        2
    x[16]     R3        -4
    x[16]     R4        2
    x[16]     R5        2
    x[16]     R6        2
    x[16]     R7        9
    x[16]     R8        -4
    x[16]     R9        -10
    x[17]     OBJ       6
    x[17]     R0        -2
    x[17]     R1        -7
    x[17]     R2        6
    x[17]     R3        -10
    x[17]     R4        -4
    x[17]     R5        2
    x[17]     R6        -5
    x[17]     R7        -9
    x[17]     R8        8
    x[18]     OBJ       -2
    x[18]     R0        -1
    x[18]     R1        -3
    x[18]     R2        -8
    x[18]     R3        -7
    x[18]     R5        -6
    x[18]     R6        -4
    x[18]     R7        3
    x[18]     R8        6
    x[19]     OBJ       6
    x[19]     R0        5
    x[19]     R1        -4
    x[19]     R2        -10
    x[19]     R3        5
    x[19]     R4        2
    x[19]     R5        -3
    x[19]     R7        4
    x[19]     R8        -4
    x[19]     R9        -8
    x[20]     OBJ       -5
    x[20]     R0        -7
    x[20]     R1        9
    x[20]     R2        -3
    x[20]     R3        -10
    x[20]     R4        -6
    x[20]     R5        -7
    x[20]     R6        5
    x[20]     R7        8
    x[20]     R8        -3
    x[20]     R9        -4
    x[21]     OBJ       -9
    x[21]     R0        -8
    x[21]     R1        10
    x[21]     R3        -8
    x[21]     R4        -5
    x[21]     R5        3
    x[21]     R6        4
    x[21]     R8        7
    x[21]     R9        7
    x[22]     OBJ       -2
    x[22]     R0        -2
    x[22]     R1        -10
    x[22]     R2        -2
    x[22]     R3        2
    x[22]     R4        8
    x[22]     R5        -7
    x[22]     R6        1
    x[22]     R7        5
    x[22]     R8        8
    x[22]     R9        -1
    x[23]     OBJ       5
    x[23]     R0        1
    x[23]     R1        -4
    x[23]     R3        9
    x[23]     R4        2
    x[23]     R5        -3
    x[23]     R6        1
    x[23]     R7        10
    x[23]     R8        4
    x[23]     R9        6
    x[24]     OBJ       2
    x[24]     R0        5
    x[24]     R1        -3
    x[24]     R2        -8
    x[24]     R3        9
    x[24]     R4        1
    x[24]     R6        5
    x[24]     R7        -5
    x[24]     R8        1
    x[24]     R9        1
    x[25]     OBJ       10
    x[25]     R0        -5
    x[25]     R1        -2
    x[25]     R3        -5
    x[25]     R4        4
    x[25]     R5        1
    x[25]     R6        6
    x[25]     R7        2
    x[25]     R9        -6
    x[26]     OBJ       5
    x[26]     R0        10
    x[26]     R1        -7
    x[26]     R2        -2
    x[26]     R3        -1
    x[26]     R4        4
    x[26]     R5        -10
    x[26]     R7        10
    x[26]     R8        3
    x[26]     R9        6
    x[27]     OBJ       -7
    x[27]     R0        -6
    x[27]     R1        4
    x[27]     R2        2
    x[27]     R3        8
    x[27]     R4        1
    x[27]     R5        -9
    x[27]     R6        -10
    x[27]     R7        -8
    x[27]     R8        -6
    x[27]     R9        2
    x[28]     R0        10
    x[28]     R1        -9
    x[28]     R2        -1
    x[28]     R3        -8
    x[28]     R4        8
    x[28]     R5        -1
    x[28]     R6        -10
    x[28]     R7        10
    x[28]     R8        -1
    x[28]     R9        -10
    x[29]     R0        6
    x[29]     R2        2
    x[29]     R3        2
    x[29]     R4        1
    x[29]     R5        6
    x[29]     R7        5
    x[29]     R8        -4
    x[29]     R9        -6
    x[30]     OBJ       4
    x[30]     R0        -2
    x[30]     R1        -8
    x[30]     R2        -9
    x[30]     R3        -4
    x[30]     R4        -10
    x[30]     R5        -3
    x[30]     R6        -10
    x[30]     R7        -8
    x[30]     R8        -9
    x[30]     R9        -5
    x[31]     OBJ       8
    x[31]     R0        -3
    x[31]     R1        1
    x[31]     R2        2
    x[31]     R3        7
    x[31]     R4        -8
    x[31]     R5        3
    x[31]     R6        -10
    x[31]     R7        -1
    x[31]     R8        -3
    x[31]     R9        5
    x[32]     OBJ       3
    x[32]     R0        4
    x[32]     R1        6
    x[32]     R2        4
    x[32]     R3        10
    x[32]     R4        -3
    x[32]     R5        -9
    x[32]     R6        -7
    x[32]     R7        -9
    x[32]     R8        9
    x[32]     R9        6
    x[33]     OBJ       8
    x[33]     R0        -2
    x[33]     R2        10
    x[33]     R3        6
    x[33]     R4        -10
    x[33]     R5        6
    x[33]     R6        -10
    x[33]     R7        -9
    x[33]     R8        6
    x[33]     R9        -8
    x[34]     OBJ       -10
    x[34]     R0        -1
    x[34]     R1        -7
    x[34]     R2        2
    x[34]     R3        -9
    x[34]     R4        7
    x[34]     R5        10
    x[34]     R6        8
    x[34]     R7        3
    x[34]     R8        1
    x[34]     R9        9
    x[35]     OBJ       6
    x[35]     R0        6
    x[35]     R1        -1
    x[35]     R2        -3
    x[35]     R3        9
    x[35]     R4        3
    x[35]     R5        3
    x[35]     R7        1
    x[35]     R8        9
    x[35]     R9        4
    x[36]     OBJ       4
    x[36]     R0        2
    x[36]     R2        -7
    x[36]     R3        -10
    x[36]     R5        -7
    x[36]     R6        -2
    x[36]     R7        -7
    x[36]     R8        -7
    x[36]     R9        7
    x[37]     OBJ       10
    x[37]     R0        -8
    x[37]     R1        3
    x[37]     R2        -6
    x[37]     R3        -9
    x[37]     R4        -1
    x[37]     R5        -1
    x[37]     R6        1
    x[37]     R7        -3
    x[37]     R8        10
    x[37]     R9        -7
    x[38]     OBJ       -2
    x[38]     R0        3
    x[38]     R1        3
    x[38]     R2        -10
    x[38]     R3        10
    x[38]     R4        -4
    x[38]     R5        -3
    x[38]     R6        -3
    x[38]     R7        5
    x[38]     R8        -6
    x[38]     R9        6
    x[39]     OBJ       -6
    x[39]     R0        -8
    x[39]     R1        8
    x[39]     R2        -1
    x[39]     R3        5
    x[39]     R4        10
    x[39]     R5        -10
    x[39]     R6        -3
    x[39]     R7        -6
    x[39]     R8        -2
    x[40]     OBJ       7
    x[40]     R0        -5
    x[40]     R1        -4
    x[40]     R2        4
    x[40]     R3        4
    x[40]     R4        3
    x[40]     R5        4
    x[40]     R6        1
    x[40]     R7        -3
    x[40]     R8        1
    x[40]     R9        5
    x[41]     OBJ       1
    x[41]     R0        4
    x[41]     R1        -8
    x[41]     R2        8
    x[41]     R3        8
    x[41]     R4        -1
    x[41]     R5        -9
    x[41]     R6        -5
    x[41]     R7        4
    x[41]     R8        9
    x[41]     R9        1
    x[42]     R0        6
    x[42]     R1        -10
    x[42]     R2        3
    x[42]     R3        10
    x[42]     R4        2
    x[42]     R5        4
    x[42]     R6        9
    x[42]     R7        -6
    x[42]     R8        4
    x[42]     R9        -8
    x[43]     OBJ       4
    x[43]     R0        -7
    x[43]     R1        -10
    x[43]     R3        -7
    x[43]     R5        -7
    x[43]     R6        2
    x[43]     R7        -5
    x[43]     R8        4
    x[43]     R9        10
    x[44]     OBJ       7
    x[44]     R0        9
    x[44]     R1        -9
    x[44]     R2        -9
    x[44]     R3        1
    x[44]     R4        -1
    x[44]     R5        5
    x[44]     R6        -5
    x[44]     R7        -3
    x[44]     R8        5
    x[44]     R9        9
    x[45]     OBJ       1
    x[45]     R0        1
    x[45]     R1        -7
    x[45]     R2        -5
    x[45]     R3        -7
    x[45]     R4        -2
    x[45]     R5        1
    x[45]     R7        -3
    x[45]     R8        -1
    x[45]     R9        7
    x[46]     OBJ       -9
    x[46]     R0        -9
    x[46]     R1        -8
    x[46]     R2        -7
    x[46]     R3        1
    x[46]     R4        -4
    x[46]     R5        10
    x[46]     R6        -6
    x[46]     R7        -9
    x[46]     R8        4
    x[46]     R9        -8
    x[47]     OBJ       -3
    x[47]     R0        6
    x[47]     R1        -9
    x[47]     R2        10
    x[47]     R3        -8
    x[47]     R4        1
    x[47]     R5        7
    x[47]     R6        4
    x[47]     R8        -10
    x[47]     R9        -3
    x[48]     OBJ       3
    x[48]     R0        7
    x[48]     R1        10
    x[48]     R2        -8
    x[48]     R3        1
    x[48]     R4        8
    x[48]     R5        6
    x[48]     R6        4
    x[48]     R7        -3
    x[48]     R8        1
    x[49]     OBJ       -3
    x[49]     R0        8
    x[49]     R1        -4
    x[49]     R2        -8
    x[49]     R3        -10
    x[49]     R4        -9
    x[49]     R5        -4
    x[49]     R6        10
    x[49]     R7        5
    x[49]     R8        -10
    x[49]     R9        -9
    x[50]     OBJ       10
    x[50]     R0        5
    x[50]     R1        5
    x[50]     R3        -9
    x[50]     R4        8
    x[50]     R5        -9
    x[50]     R6        10
    x[50]     R7        -6
    x[50]     R8        6
    x[50]     R9        -7
    x[51]     OBJ       -8
    x[51]     R0        -4
    x[51]     R1        -9
    x[51]     R2        -3
    x[51]     R3        7
    x[51]     R5        -2
    x[51]     R6        -3
    x[51]     R7        9
    x[51]     R8        -6
    x[51]     R9        1
    x[52]     OBJ       8
    x[52]     R0        -7
    x[52]     R1        -1
    x[52]     R2        -2
    x[52]     R3        -2
    x[52]     R4        -2
    x[52]     R5        5
    x[52]     R6        -10
    x[52]     R7        4
    x[52]     R8        -4
    x[52]     R9        -5
    x[53]     OBJ       -6
    x[53]     R0        -6
    x[53]     R1        -5
    x[53]     R2        -4
    x[53]     R3        -10
    x[53]     R4        -10
    x[53]     R5        -3
    x[53]     R6        -10
    x[53]     R7        -9
    x[53]     R8        -6
    x[53]     R9        6
    x[54]     OBJ       2
    x[54]     R0        6
    x[54]     R1        -1
    x[54]     R2        -3
    x[54]     R3        8
    x[54]     R4        -5
    x[54]     R5        5
    x[54]     R6        -8
    x[54]     R8        3
    x[54]     R9        -4
    x[55]     OBJ       9
    x[55]     R0        -8
    x[55]     R1        7
    x[55]     R2        -9
    x[55]     R3        -10
    x[55]     R4        1
    x[55]     R5        6
    x[55]     R6        -5
    x[55]     R7        -2
    x[55]     R8        9
    x[55]     R9        -7
    x[56]     OBJ       -3
    x[56]     R1        7
    x[56]     R2        9
    x[56]     R3        10
    x[56]     R4        6
    x[56]     R5        10
    x[56]     R6        8
    x[56]     R7        -3
    x[56]     R9        -4
    x[57]     OBJ       1
    x[57]     R0        3
    x[57]     R1        2
    x[57]     R2        9
    x[57]     R3        -4
    x[57]     R4        -10
    x[57]     R5        7
    x[57]     R6        -2
    x[57]     R7        6
    x[57]     R8        -8
    x[57]     R9        -3
    x[58]     OBJ       2
    x[58]     R0        -1
    x[58]     R1        1
    x[58]     R2        6
    x[58]     R3        -1
    x[58]     R4        3
    x[58]     R5        10
    x[58]     R6        -10
    x[58]     R7        -10
    x[58]     R8        -2
    x[58]     R9        -1
    x[59]     OBJ       -5
    x[59]     R0        -1
    x[59]     R1        -5
    x[59]     R2        5
    x[59]     R3        -2
    x[59]     R4        3
    x[59]     R5        -8
    x[59]     R7        -6
    x[59]     R8        10
    x[60]     OBJ       -10
    x[60]     R0        8
    x[60]     R1        -1
    x[60]     R2        7
    x[60]     R3        -4
    x[60]     R5        -5
    x[60]     R6        -1
    x[60]     R7        9
    x[60]     R8        -8
    x[60]     R9        5
    x[61]     OBJ       -1
    x[61]     R0        -2
    x[61]     R1        1
    x[61]     R2        7
    x[61]     R3        -9
    x[61]     R4        -9
    x[61]     R5        8
    x[61]     R6        8
    x[61]     R7        9
    x[61]     R8        4
    x[61]     R9        4
    x[62]     OBJ       4
    x[62]     R0        -3
    x[62]     R1        -10
    x[62]     R2        -5
    x[62]     R3        -10
    x[62]     R4        1
    x[62]     R5        -8
    x[62]     R6        -8
    x[62]     R7        -7
    x[62]     R8        -4
    x[62]     R9        -10
    x[63]     OBJ       9
    x[63]     R0        -1
    x[63]     R1        7
    x[63]     R2        -5
    x[63]     R3        -6
    x[63]     R4        5
    x[63]     R5        -9
    x[63]     R6        5
    x[63]     R7        -8
    x[63]     R8        2
    x[63]     R9        -9
    x[64]     OBJ       -4
    x[64]     R0        4
    x[64]     R1        -2
    x[64]     R2        -9
    x[64]     R3        -6
    x[64]     R4        9
    x[64]     R5        -5
    x[64]     R6        -5
    x[64]     R7        -7
    x[64]     R8        -6
    x[64]     R9        10
    x[65]     OBJ       -5
    x[65]     R1        -9
    x[65]     R2        3
    x[65]     R3        -1
    x[65]     R4        -10
    x[65]     R5        4
    x[65]     R6        -2
    x[65]     R7        4
    x[65]     R8        2
    x[65]     R9        -5
    x[66]     OBJ       -2
    x[66]     R0        -5
    x[66]     R1        3
    x[66]     R2        -10
    x[66]     R4        -5
    x[66]     R5        -4
    x[66]     R6        -9
    x[66]     R7        -10
    x[66]     R8        -10
    x[66]     R9        10
    x[67]     OBJ       4
    x[67]     R0        -9
    x[67]     R1        -9
    x[67]     R2        -5
    x[67]     R3        6
    x[67]     R4        -3
    x[67]     R5        6
    x[67]     R6        5
    x[67]     R7        10
    x[67]     R8        -3
    x[67]     R9        -4
    x[68]     OBJ       -5
    x[68]     R0        -9
    x[68]     R1        6
    x[68]     R2        9
    x[68]     R3        -6
    x[68]     R5        5
    x[68]     R6        -4
    x[68]     R7        -2
    x[68]     R8        6
    x[68]     R9        -3
    x[69]     OBJ       1
    x[69]     R0        -9
    x[69]     R1        5
    x[69]     R2        -1
    x[69]     R3        7
    x[69]     R4        -1
    x[69]     R5        1
    x[69]     R6        -5
    x[69]     R7        4
    x[69]     R8        3
    x[69]     R9        -8
    x[70]     OBJ       -3
    x[70]     R0        9
    x[70]     R1        5
    x[70]     R2        6
    x[70]     R3        9
    x[70]     R4        7
    x[70]     R5        -6
    x[70]     R6        3
    x[70]     R7        7
    x[70]     R8        -9
    x[70]     R9        10
    x[71]     OBJ       5
    x[71]     R0        -2
    x[71]     R1        3
    x[71]     R2        10
    x[71]     R3        -5
    x[71]     R4        -5
    x[71]     R6        -8
    x[71]     R7        -6
    x[71]     R8        10
    x[71]     R9        -10
    x[72]     OBJ       2
    x[72]     R0        7
    x[72]     R1        -1
    x[72]     R2        7
    x[72]     R3        -10
    x[72]     R4        9
    x[72]     R5        4
    x[72]     R6        5
    x[72]     R7        2
    x[72]     R8        -8
    x[72]     R9        1
    x[73]     OBJ       2
    x[73]     R0        7
    x[73]     R1        1
    x[73]     R2        9
    x[73]     R3        2
    x[73]     R4        -3
    x[73]     R5        4
    x[73]     R6        2
    x[73]     R8        -6
    x[73]     R9        -8
    x[74]     OBJ       1
    x[74]     R0        5
    x[74]     R1        -5
    x[74]     R2        4
    x[74]     R3        3
    x[74]     R4        -8
    x[74]     R5        10
    x[74]     R6        -10
    x[74]     R7        4
    x[74]     R8        -2
    x[74]     R9        -3
    x[75]     OBJ       5
    x[75]     R0        -4
    x[75]     R1        -6
    x[75]     R2        -10
    x[75]     R3        9
    x[75]     R4        1
    x[75]     R5        -10
    x[75]     R6        1
    x[75]     R8        -8
    x[75]     R9        -5
    x[76]     R1        5
    x[76]     R2        -5
    x[76]     R3        5
    x[76]     R4        6
    x[76]     R5        -7
    x[76]     R6        2
    x[76]     R7        7
    x[76]     R8        -1
    x[77]     R0        4
    x[77]     R1        -10
    x[77]     R2        -4
    x[77]     R3        2
    x[77]     R4        6
    x[77]     R5        -3
    x[77]     R6        -6
    x[77]     R7        -3
    x[77]     R8        1
    x[77]     R9        -8
    x[78]     OBJ       5
    x[78]     R0        5
    x[78]     R1        5
    x[78]     R2        -7
    x[78]     R3        6
    x[78]     R4        -8
    x[78]     R5        -3
    x[78]     R6        -1
    x[78]     R7        -3
    x[78]     R8        -5
    x[78]     R9        10
    x[79]     OBJ       -4
    x[79]     R0        2
    x[79]     R1        -3
    x[79]     R2        -8
    x[79]     R3        -5
    x[79]     R4        -4
    x[79]     R5        6
    x[79]     R6        5
    x[79]     R7        4
    x[79]     R8        -9
    x[79]     R9        4
    x[80]     OBJ       3
    x[80]     R0        -7
    x[80]     R1        4
    x[80]     R2        -5
    x[80]     R3        4
    x[80]     R5        -1
    x[80]     R7        -8
    x[80]     R8        9
    x[80]     R9        -10
    x[81]     R0        -8
    x[81]     R1        1
    x[81]     R2        -5
    x[81]     R3        -10
    x[81]     R4        10
    x[81]     R5        4
    x[81]     R6        3
    x[81]     R7        -7
    x[81]     R8        8
    x[81]     R9        -8
    x[82]     OBJ       6
    x[82]     R0        -7
    x[82]     R1        6
    x[82]     R2        -4
    x[82]     R3        -10
    x[82]     R4        -2
    x[82]     R5        -3
    x[82]     R6        -3
    x[82]     R7        -4
    x[82]     R8        -10
    x[82]     R9        10
    x[83]     OBJ       4
    x[83]     R0        6
    x[83]     R1        -7
    x[83]     R2        1
    x[83]     R3        4
    x[83]     R4        -6
    x[83]     R5        -8
    x[83]     R6        3
    x[83]     R7        1
    x[83]     R8        -1
    x[83]     R9        -2
    x[84]     OBJ       -3
    x[84]     R0        1
    x[84]     R1        6
    x[84]     R2        -8
    x[84]     R3        -4
    x[84]     R4        1
    x[84]     R5        -4
    x[84]     R6        5
    x[84]     R7        -9
    x[84]     R8        1
    x[84]     R9        -5
    x[85]     OBJ       -1
    x[85]     R0        -8
    x[85]     R1        -6
    x[85]     R2        6
    x[85]     R5        4
    x[85]     R6        8
    x[85]     R7        -10
    x[85]     R8        -3
    x[85]     R9        3
    x[86]     OBJ       10
    x[86]     R0        1
    x[86]     R1        8
    x[86]     R2        -7
    x[86]     R3        2
    x[86]     R4        8
    x[86]     R5        -10
    x[86]     R6        -7
    x[86]     R7        -9
    x[86]     R8        -9
    x[87]     OBJ       -3
    x[87]     R0        5
    x[87]     R1        -9
    x[87]     R2        -5
    x[87]     R3        -10
    x[87]     R5        -6
    x[87]     R6        5
    x[87]     R7        4
    x[87]     R8        -1
    x[87]     R9        -6
    x[88]     OBJ       -10
    x[88]     R0        -4
    x[88]     R1        6
    x[88]     R2        6
    x[88]     R3        10
    x[88]     R4        -10
    x[88]     R5        8
    x[88]     R6        8
    x[88]     R8        -1
    x[88]     R9        -3
    x[89]     OBJ       8
    x[89]     R0        7
    x[89]     R1        -10
    x[89]     R2        1
    x[89]     R3        -3
    x[89]     R4        9
    x[89]     R5        -10
    x[89]     R6        8
    x[89]     R7        5
    x[89]     R8        1
    x[89]     R9        10
    x[90]     OBJ       3
    x[90]     R1        10
    x[90]     R4        -3
    x[90]     R5        1
    x[90]     R6        4
    x[90]     R7        -4
    x[90]     R8        -2
    x[90]     R9        10
    x[91]     OBJ       -6
    x[91]     R0        1
    x[91]     R2        7
    x[91]     R3        -2
    x[91]     R4        2
    x[91]     R5        2
    x[91]     R6        -4
    x[91]     R7        3
    x[91]     R8        -3
    x[91]     R9        -5
    x[92]     R0        5
    x[92]     R1        -8
    x[92]     R2        8
    x[92]     R3        3
    x[92]     R4        -8
    x[92]     R5        5
    x[92]     R6        9
    x[92]     R7        1
    x[92]     R8        1
    x[92]     R9        7
    x[93]     OBJ       -2
    x[93]     R0        3
    x[93]     R1        5
    x[93]     R2        2
    x[93]     R3        -8
    x[93]     R4        1
    x[93]     R6        4
    x[93]     R8        5
    x[93]     R9        10
    x[94]     OBJ       -7
    x[94]     R0        1
    x[94]     R2        -6
    x[94]     R3        4
    x[94]     R5        1
    x[94]     R6        8
    x[94]     R8        9
    x[94]     R9        -2
    x[95]     OBJ       -7
    x[95]     R0        3
    x[95]     R1        4
    x[95]     R2        -6
    x[95]     R3        -7
    x[95]     R4        6
    x[95]     R5        -3
    x[95]     R6        9
    x[95]     R7        -2
    x[95]     R9        -2
    x[96]     OBJ       -8
    x[96]     R0        -7
    x[96]     R1        -10
    x[96]     R2        -3
    x[96]     R3        -9
    x[96]     R4        -6
    x[96]     R5        5
    x[96]     R6        3
    x[96]     R7        -10
    x[96]     R8        -5
    x[96]     R9        -4
    x[97]     R0        -5
    x[97]     R1        -4
    x[97]     R2        2
    x[97]     R3        -1
    x[97]     R4        8
    x[97]     R5        -7
    x[97]     R6        -8
    x[97]     R7        -8
    x[97]     R8        -7
    x[97]     R9        -9
    x[98]     OBJ       -5
    x[98]     R0        6
    x[98]     R1        5
    x[98]     R3        -1
    x[98]     R4        -6
    x[98]     R5        -5
    x[98]     R6        2
    x[98]     R7        -5
    x[98]     R8        10
    x[98]     R9        1
    x[99]     OBJ       1
    x[99]     R0        -6
    x[99]     R1        -3
    x[99]     R2        1
    x[99]     R3        -7
    x[99]     R4        9
    x[99]     R5        -5
    x[99]     R6        -8
    x[99]     R7        -2
    x[99]     R8        1
    x[99]     R9        1
    y[0]      OBJ       -10
    y[0]      R0        -6
    y[0]      R1        9
    y[0]      R2        5
    y[0]      R3        -9
    y[0]      R4        -4
    y[0]      R5        -1
    y[0]      R6        -4
    y[0]      R7        -10
    y[0]      R8        6
    y[0]      R9        2
    y[1]      OBJ       -8
    y[1]      R0        6
    y[1]      R1        1
    y[1]      R3        -5
    y[1]      R4        -5
    y[1]      R5        7
    y[1]      R6        -3
    y[1]      R7        6
    y[1]      R8        -5
    y[1]      R9        10
    y[2]      OBJ       -4
    y[2]      R1        -7
    y[2]      R2        4
    y[2]      R3        -4
    y[2]      R4        -6
    y[2]      R5        -4
    y[2]      R6        1
    y[2]      R7        8
    y[2]      R8        -7
    y[2]      R9        -7
    y[3]      OBJ       -6
    y[3]      R0        4
    y[3]      R1        3
    y[3]      R2        -5
    y[3]      R3        -6
    y[3]      R4        -5
    y[3]      R5        7
    y[3]      R6        -2
    y[3]      R7        6
    y[3]      R8        -3
    y[3]      R9        6
    y[4]      OBJ       -7
    y[4]      R0        -10
    y[4]      R1        5
    y[4]      R2        4
    y[4]      R3        -4
    y[4]      R4        -6
    y[4]      R5        9
    y[4]      R6        4
    y[4]      R7        1
    y[4]      R8        -5
    y[4]      R9        4
    y[5]      OBJ       -1
    y[5]      R0        6
    y[5]      R1        -1
    y[5]      R2        6
    y[5]      R3        3
    y[5]      R4        1
    y[5]      R5        -9
    y[5]      R6        5
    y[5]      R7        4
    y[5]      R8        -8
    y[5]      R9        5
    y[6]      OBJ       -4
    y[6]      R0        7
    y[6]      R1        7
    y[6]      R2        1
    y[6]      R3        5
    y[6]      R4        -9
    y[6]      R5        10
    y[6]      R6        -7
    y[6]      R7        2
    y[6]      R8        -2
    y[6]      R9        5
    y[7]      OBJ       -6
    y[7]      R0        5
    y[7]      R1        -4
    y[7]      R3        7
    y[7]      R4        -7
    y[7]      R5        5
    y[7]      R6        -2
    y[7]      R7        10
    y[7]      R8        -7
    y[7]      R9        4
    y[8]      OBJ       -6
    y[8]      R0        3
    y[8]      R1        2
    y[8]      R2        2
    y[8]      R3        -6
    y[8]      R4        7
    y[8]      R5        7
    y[8]      R6        -7
    y[8]      R7        4
    y[8]      R8        5
    y[8]      R9        -7
    y[9]      OBJ       -3
    y[9]      R0        -5
    y[9]      R1        -6
    y[9]      R2        -2
    y[9]      R3        -2
    y[9]      R4        -8
    y[9]      R5        -2
    y[9]      R6        -9
    y[9]      R7        -3
    y[9]      R8        -8
    y[9]      R9        3
    MARKER    'MARKER'                 'INTEND'
RHS
    RHS1      R0        -2.25
    RHS1      R1        -21.25
    RHS1      R2        -16.25
    RHS1      R3        -25.25
    RHS1      R4        -11.25
    RHS1      R5        5
    RHS1      R6        -18
    RHS1      R7        -7
    RHS1      R8        -16
    RHS1      R9        -8
BOUNDS
 BV BND1      x[0]    
 BV BND1      x[1]    
 BV BND1      x[2]    
 BV BND1      x[3]    
 BV BND1      x[4]    
 BV BND1      x[5]    
 BV BND1      x[6]    
 BV BND1      x[7]    
 BV BND1      x[8]    
 BV BND1      x[9]    
 BV BND1      x[10]   
 BV BND1      x[11]   
 BV BND1      x[12]   
 BV BND1      x[13]   
 BV BND1      x[14]   
 BV BND1      x[15]   
 BV BND1      x[16]   
 BV BND1      x[17]   
 BV BND1      x[18]   
 BV BND1      x[19]   
 BV BND1      x[20]   
 BV BND1      x[21]   
 BV BND1      x[22]   
 BV BND1      x[23]   
 BV BND1      x[24]   
 BV BND1      x[25]   
 BV BND1      x[26]   
 BV BND1      x[27]   
 BV BND1      x[28]   
 BV BND1      x[29]   
 BV BND1      x[30]   
 BV BND1      x[31]   
 BV BND1      x[32]   
 BV BND1      x[33]   
 BV BND1      x[34]   
 BV BND1      x[35]   
 BV BND1      x[36]   
 BV BND1      x[37]   
 BV BND1      x[38]   
 BV BND1      x[39]   
 BV BND1      x[40]   
 BV BND1      x[41]   
 BV BND1      x[42]   
 BV BND1      x[43]   
 BV BND1      x[44]   
 BV BND1      x[45]   
 BV BND1      x[46]   
 BV BND1      x[47]   
 BV BND1      x[48]   
 BV BND1      x[49]   
 BV BND1      x[50]   
 BV BND1      x[51]   
 BV BND1      x[52]   
 BV BND1      x[53]   
 BV BND1      x[54]   
 BV BND1      x[55]   
 BV BND1      x[56]   
 BV BND1      x[57]   
 BV BND1      x[58]   
 BV BND1      x[59]   
 BV BND1      x[60]   
 BV BND1      x[61]   
 BV BND1      x[62]   
 BV BND1      x[63]   
 BV BND1      x[64]   
 BV BND1      x[65]   
 BV BND1      x[66]   
 BV BND1      x[67]   
 BV BND1      x[68]   
 BV BND1      x[69]   
 BV BND1      x[70]   
 BV BND1      x[71]   
 BV BND1      x[72]   
 BV BND1      x[73]   
 BV BND1      x[74]   
 BV BND1      x[75]   
 BV BND1      x[76]   
 BV BND1      x[77]   
 BV BND1      x[78]   
 BV BND1      x[79]   
 BV BND1      x[80]   
 BV BND1      x[81]   
 BV BND1      x[82]   
 BV BND1      x[83]   
 BV BND1      x[84]   
 BV BND1      x[85]   
 BV BND1      x[86]   
 BV BND1      x[87]   
 BV BND1      x[88]   
 BV BND1      x[89]   
 BV BND1      x[90]   
 BV BND1      x[91]   
 BV BND1      x[92]   
 BV BND1      x[93]   
 BV BND1      x[94]   
 BV BND1      x[95]   
 BV BND1      x[96]   
 BV BND1      x[97]   
 BV BND1      x[98]   
 BV BND1      x[99]   
 BV BND1      y[0]    
 BV BND1      y[1]    
 BV BND1      y[2]    
 BV BND1      y[3]    
 BV BND1      y[4]    
 BV BND1      y[5]    
 BV BND1      y[6]    
 BV BND1      y[7]    
 BV BND1      y[8]    
 BV BND1      y[9]    
ENDATA
